WARNING: for repeatability, setting FPU to use double precision
============================[ Problem Statistics ]=============================
|                                                                             |
|  Number of variables:           100                                         |
|  Number of clauses:             449                                         |
|  Parse time:                   0.00 s                                       |
|  Eliminated clauses:           0.00 Mb                                      |
|  Simplification time:          0.00 s                                       |
|                                                                             |
============================[ Search Statistics ]==============================
| Conflicts |          ORIGINAL         |          LEARNT          | Progress |
|           |    Vars  Clauses Literals |    Limit  Clauses Lit/Cl |          |
===============================================================================
|       100 |      98      448     1358 |      164      100      6 |  0.020 % |
|       250 |      98      448     1358 |      180      165      6 |  0.031 % |
===============================================================================
restarts              : 4
conflicts             : 470            (117090 /sec)
decisions             : 582            (0.00 % random) (144993 /sec)
propagations          : 10960          (2730443 /sec)
conflict literals     : 2742           (27.88 % deleted)
Memory used           : 13.00 MB
CPU time              : 0.004014 s

SATISFIABLE
